Route #1: 1 1 48 16 37 11 32 17 10 36 1 
Route #2: 1 50 5 46 54 26 52 43 29 40 1 
Route #3: 1 62 41 20 59 8 39 56 1 
Route #4: 1 38 68 13 44 15 3 51 30 2 1 
Route #5: 1 63 25 14 34 27 7 28 42 57 1 
Route #6: 1 12 66 23 31 58 22 1 
Route #7: 1 24 19 18 53 9 6 35 45 1 
Route #8: 1 47 4 60 55 65 21 64 1 
Route #9: 1 67 61 33 49 1 

Cost 1633.17
Time 0.0270


 * Other infos *

 Iterations: 69 Time: 0.0270 sec - 0.0005 min - 0.0000 horas
0.0000 h 0.0005 min
Problem dimension: 69
